# 77518
param n := 25;
param s := 1;
set E :=  (0,3) (0,24) (1,5) (1,6) (1,8) (2,18) (2,19) (3,10) (3,12) (3,19) (4,5) (4,10) (5,6) (5,11) (5,12) (5,13) (6,20) (6,22) (7,16) (9,17) (10,23) (11,22) (12,17) (14,16) (14,17) (14,20) (15,21) (15,24) (16,19) (17,24) (19,20);
